certificates/rado_a15_c262_N66.cnf
c Rad2 upper bound instance: x1 + 15*x2 - x3 = 262, interval [1,66]
p cnf 66 574
1 9 18 0
-1 -9 -18 0
1 19 24 0
-1 -19 -24 0
1 20 39 0
-1 -20 -39 0
1 21 54 0
-1 -21 -54 0
2 10 18 0
-2 -10 -18 0
2 19 25 0
-2 -19 -25 0
2 20 40 0
-2 -20 -40 0
2 21 55 0
-2 -21 -55 0
3 11 18 0
-3 -11 -18 0
3 19 26 0
-3 -19 -26 0
3 20 41 0
-3 -20 -41 0
3 21 56 0
-3 -21 -56 0
4 12 18 0
-4 -12 -18 0
4 19 27 0
-4 -19 -27 0
4 20 42 0
-4 -20 -42 0
4 21 57 0
-4 -21 -57 0
5 13 18 0
-5 -13 -18 0
5 19 28 0
-5 -19 -28 0
5 20 43 0
-5 -20 -43 0
5 21 58 0
-5 -21 -58 0
6 14 18 0
-6 -14 -18 0
6 19 29 0
-6 -19 -29 0
6 20 44 0
-6 -20 -44 0
6 21 59 0
-6 -21 -59 0
7 15 18 0
-7 -15 -18 0
7 19 30 0
-7 -19 -30 0
7 20 45 0
-7 -20 -45 0
7 21 60 0
-7 -21 -60 0
1 8 17 0
-1 -8 -17 0
8 16 18 0
-8 -16 -18 0
8 19 31 0
-8 -19 -31 0
8 20 46 0
-8 -20 -46 0
8 21 61 0
-8 -21 -61 0
2 9 17 0
-2 -9 -17 0
9 17 18 0
-9 -17 -18 0
9 19 32 0
-9 -19 -32 0
9 20 47 0
-9 -20 -47 0
9 21 62 0
-9 -21 -62 0
3 10 17 0
-3 -10 -17 0
10 18 0
-10 -18 0
10 19 33 0
-10 -19 -33 0
10 20 48 0
-10 -20 -48 0
10 21 63 0
-10 -21 -63 0
4 11 17 0
-4 -11 -17 0
11 18 19 0
-11 -18 -19 0
11 19 34 0
-11 -19 -34 0
11 20 49 0
-11 -20 -49 0
11 21 64 0
-11 -21 -64 0
5 12 17 0
-5 -12 -17 0
12 18 20 0
-12 -18 -20 0
12 19 35 0
-12 -19 -35 0
12 20 50 0
-12 -20 -50 0
12 21 65 0
-12 -21 -65 0
6 13 17 0
-6 -13 -17 0
13 18 21 0
-13 -18 -21 0
13 19 36 0
-13 -19 -36 0
13 20 51 0
-13 -20 -51 0
13 21 66 0
-13 -21 -66 0
7 14 17 0
-7 -14 -17 0
14 18 22 0
-14 -18 -22 0
14 19 37 0
-14 -19 -37 0
14 20 52 0
-14 -20 -52 0
8 15 17 0
-8 -15 -17 0
15 18 23 0
-15 -18 -23 0
15 19 38 0
-15 -19 -38 0
15 20 53 0
-15 -20 -53 0
9 16 17 0
-9 -16 -17 0
16 18 24 0
-16 -18 -24 0
16 19 39 0
-16 -19 -39 0
16 20 54 0
-16 -20 -54 0
10 17 0
-10 -17 0
17 18 25 0
-17 -18 -25 0
17 19 40 0
-17 -19 -40 0
17 20 55 0
-17 -20 -55 0
11 17 18 0
-11 -17 -18 0
18 26 0
-18 -26 0
18 19 41 0
-18 -19 -41 0
18 20 56 0
-18 -20 -56 0
12 17 19 0
-12 -17 -19 0
18 19 27 0
-18 -19 -27 0
19 42 0
-19 -42 0
19 20 57 0
-19 -20 -57 0
13 17 20 0
-13 -17 -20 0
18 20 28 0
-18 -20 -28 0
19 20 43 0
-19 -20 -43 0
20 58 0
-20 -58 0
14 17 21 0
-14 -17 -21 0
18 21 29 0
-18 -21 -29 0
19 21 44 0
-19 -21 -44 0
20 21 59 0
-20 -21 -59 0
15 17 22 0
-15 -17 -22 0
18 22 30 0
-18 -22 -30 0
19 22 45 0
-19 -22 -45 0
20 22 60 0
-20 -22 -60 0
1 16 23 0
-1 -16 -23 0
16 17 23 0
-16 -17 -23 0
18 23 31 0
-18 -23 -31 0
19 23 46 0
-19 -23 -46 0
20 23 61 0
-20 -23 -61 0
2 16 24 0
-2 -16 -24 0
17 24 0
-17 -24 0
18 24 32 0
-18 -24 -32 0
19 24 47 0
-19 -24 -47 0
20 24 62 0
-20 -24 -62 0
3 16 25 0
-3 -16 -25 0
18 25 33 0
-18 -25 -33 0
19 25 48 0
-19 -25 -48 0
20 25 63 0
-20 -25 -63 0
4 16 26 0
-4 -16 -26 0
17 19 26 0
-17 -19 -26 0
18 26 34 0
-18 -26 -34 0
19 26 49 0
-19 -26 -49 0
20 26 64 0
-20 -26 -64 0
5 16 27 0
-5 -16 -27 0
17 20 27 0
-17 -20 -27 0
18 27 35 0
-18 -27 -35 0
19 27 50 0
-19 -27 -50 0
20 27 65 0
-20 -27 -65 0
6 16 28 0
-6 -16 -28 0
17 21 28 0
-17 -21 -28 0
18 28 36 0
-18 -28 -36 0
19 28 51 0
-19 -28 -51 0
20 28 66 0
-20 -28 -66 0
7 16 29 0
-7 -16 -29 0
17 22 29 0
-17 -22 -29 0
18 29 37 0
-18 -29 -37 0
19 29 52 0
-19 -29 -52 0
8 16 30 0
-8 -16 -30 0
17 23 30 0
-17 -23 -30 0
18 30 38 0
-18 -30 -38 0
19 30 53 0
-19 -30 -53 0
9 16 31 0
-9 -16 -31 0
17 24 31 0
-17 -24 -31 0
18 31 39 0
-18 -31 -39 0
19 31 54 0
-19 -31 -54 0
10 16 32 0
-10 -16 -32 0
17 25 32 0
-17 -25 -32 0
18 32 40 0
-18 -32 -40 0
19 32 55 0
-19 -32 -55 0
11 16 33 0
-11 -16 -33 0
17 26 33 0
-17 -26 -33 0
18 33 41 0
-18 -33 -41 0
19 33 56 0
-19 -33 -56 0
12 16 34 0
-12 -16 -34 0
17 27 34 0
-17 -27 -34 0
18 34 42 0
-18 -34 -42 0
19 34 57 0
-19 -34 -57 0
13 16 35 0
-13 -16 -35 0
17 28 35 0
-17 -28 -35 0
18 35 43 0
-18 -35 -43 0
19 35 58 0
-19 -35 -58 0
14 16 36 0
-14 -16 -36 0
17 29 36 0
-17 -29 -36 0
18 36 44 0
-18 -36 -44 0
19 36 59 0
-19 -36 -59 0
15 16 37 0
-15 -16 -37 0
17 30 37 0
-17 -30 -37 0
18 37 45 0
-18 -37 -45 0
19 37 60 0
-19 -37 -60 0
1 15 38 0
-1 -15 -38 0
16 38 0
-16 -38 0
17 31 38 0
-17 -31 -38 0
18 38 46 0
-18 -38 -46 0
19 38 61 0
-19 -38 -61 0
2 15 39 0
-2 -15 -39 0
16 17 39 0
-16 -17 -39 0
17 32 39 0
-17 -32 -39 0
18 39 47 0
-18 -39 -47 0
19 39 62 0
-19 -39 -62 0
3 15 40 0
-3 -15 -40 0
16 18 40 0
-16 -18 -40 0
17 33 40 0
-17 -33 -40 0
18 40 48 0
-18 -40 -48 0
19 40 63 0
-19 -40 -63 0
4 15 41 0
-4 -15 -41 0
16 19 41 0
-16 -19 -41 0
17 34 41 0
-17 -34 -41 0
18 41 49 0
-18 -41 -49 0
19 41 64 0
-19 -41 -64 0
5 15 42 0
-5 -15 -42 0
16 20 42 0
-16 -20 -42 0
17 35 42 0
-17 -35 -42 0
18 42 50 0
-18 -42 -50 0
19 42 65 0
-19 -42 -65 0
6 15 43 0
-6 -15 -43 0
16 21 43 0
-16 -21 -43 0
17 36 43 0
-17 -36 -43 0
18 43 51 0
-18 -43 -51 0
19 43 66 0
-19 -43 -66 0
7 15 44 0
-7 -15 -44 0
16 22 44 0
-16 -22 -44 0
17 37 44 0
-17 -37 -44 0
18 44 52 0
-18 -44 -52 0
8 15 45 0
-8 -15 -45 0
16 23 45 0
-16 -23 -45 0
17 38 45 0
-17 -38 -45 0
18 45 53 0
-18 -45 -53 0
9 15 46 0
-9 -15 -46 0
16 24 46 0
-16 -24 -46 0
17 39 46 0
-17 -39 -46 0
18 46 54 0
-18 -46 -54 0
10 15 47 0
-10 -15 -47 0
16 25 47 0
-16 -25 -47 0
17 40 47 0
-17 -40 -47 0
18 47 55 0
-18 -47 -55 0
11 15 48 0
-11 -15 -48 0
16 26 48 0
-16 -26 -48 0
17 41 48 0
-17 -41 -48 0
18 48 56 0
-18 -48 -56 0
12 15 49 0
-12 -15 -49 0
16 27 49 0
-16 -27 -49 0
17 42 49 0
-17 -42 -49 0
18 49 57 0
-18 -49 -57 0
13 15 50 0
-13 -15 -50 0
16 28 50 0
-16 -28 -50 0
17 43 50 0
-17 -43 -50 0
18 50 58 0
-18 -50 -58 0
14 15 51 0
-14 -15 -51 0
16 29 51 0
-16 -29 -51 0
17 44 51 0
-17 -44 -51 0
18 51 59 0
-18 -51 -59 0
15 52 0
-15 -52 0
16 30 52 0
-16 -30 -52 0
17 45 52 0
-17 -45 -52 0
18 52 60 0
-18 -52 -60 0
1 14 53 0
-1 -14 -53 0
15 16 53 0
-15 -16 -53 0
16 31 53 0
-16 -31 -53 0
17 46 53 0
-17 -46 -53 0
18 53 61 0
-18 -53 -61 0
2 14 54 0
-2 -14 -54 0
15 17 54 0
-15 -17 -54 0
16 32 54 0
-16 -32 -54 0
17 47 54 0
-17 -47 -54 0
18 54 62 0
-18 -54 -62 0
3 14 55 0
-3 -14 -55 0
15 18 55 0
-15 -18 -55 0
16 33 55 0
-16 -33 -55 0
17 48 55 0
-17 -48 -55 0
18 55 63 0
-18 -55 -63 0
4 14 56 0
-4 -14 -56 0
15 19 56 0
-15 -19 -56 0
16 34 56 0
-16 -34 -56 0
17 49 56 0
-17 -49 -56 0
18 56 64 0
-18 -56 -64 0
5 14 57 0
-5 -14 -57 0
15 20 57 0
-15 -20 -57 0
16 35 57 0
-16 -35 -57 0
17 50 57 0
-17 -50 -57 0
18 57 65 0
-18 -57 -65 0
6 14 58 0
-6 -14 -58 0
15 21 58 0
-15 -21 -58 0
16 36 58 0
-16 -36 -58 0
17 51 58 0
-17 -51 -58 0
18 58 66 0
-18 -58 -66 0
7 14 59 0
-7 -14 -59 0
15 22 59 0
-15 -22 -59 0
16 37 59 0
-16 -37 -59 0
17 52 59 0
-17 -52 -59 0
8 14 60 0
-8 -14 -60 0
15 23 60 0
-15 -23 -60 0
16 38 60 0
-16 -38 -60 0
17 53 60 0
-17 -53 -60 0
9 14 61 0
-9 -14 -61 0
15 24 61 0
-15 -24 -61 0
16 39 61 0
-16 -39 -61 0
17 54 61 0
-17 -54 -61 0
10 14 62 0
-10 -14 -62 0
15 25 62 0
-15 -25 -62 0
16 40 62 0
-16 -40 -62 0
17 55 62 0
-17 -55 -62 0
11 14 63 0
-11 -14 -63 0
15 26 63 0
-15 -26 -63 0
16 41 63 0
-16 -41 -63 0
17 56 63 0
-17 -56 -63 0
12 14 64 0
-12 -14 -64 0
15 27 64 0
-15 -27 -64 0
16 42 64 0
-16 -42 -64 0
17 57 64 0
-17 -57 -64 0
13 14 65 0
-13 -14 -65 0
15 28 65 0
-15 -28 -65 0
16 43 65 0
-16 -43 -65 0
17 58 65 0
-17 -58 -65 0
14 66 0
-14 -66 0
15 29 66 0
-15 -29 -66 0
16 44 66 0
-16 -44 -66 0
17 59 66 0
-17 -59 -66 0
