certificates/rado_a15_c262_N66.drat
17 -63 14 0
-17 -65 -66 0
-65 -66 0
d -17 -65 -66 0
-66 0
14 0
21 11 0
-21 -63 0
d -21 -10 -63 0
-63 0
-21 0
13 0
11 0
10 0
-65 0
-18 0
-17 0
-62 0
12 0
58 0
57 0
25 0
26 0
9 0
55 0
29 0
24 0
59 0
28 0
56 0
54 0
-64 0
-20 0
-6 0
-5 0
-61 0
-3 0
-7 0
-4 0
-2 0
41 0
42 0
44 0
45 0
27 0
43 0
53 0
8 0
23 0
60 0
15 0
40 0
-19 0
0
